<instance format="XCSP3" type="CSP">
  <variables>
    <var id="x0"> 6 7 </var>
    <var id="x1"> 2 3 5 </var>
    <var id="x2"> 2 3 7 12 </var>
    <var id="x3"> 0 3 7 12 </var>
    <var id="x4"> 0 12 </var>
    <var id="x5"> 2 5 12 </var>
    <var id="x6"> 3 5..7 </var>
    <var id="x7"> 4 12 </var>
    <var id="x8"> 12 </var>
    <var id="x9"> 4 7 10..12 </var>
    <var id="x10"> 4 8 10 12 </var>
    <var id="x11"> 7 8 14 </var>
    <var id="x12"> 4 7 8 10 </var>
    <var id="x13"> 8 10 11 </var>
    <var id="x14"> 3 5 9 </var>
    <var id="x15"> 3 4 </var>
    <var id="x16"> 4 6 9 </var>
    <var id="x17"> 0 3 4 8 </var>
    <var id="x18"> 0 4 8 9 </var>
    <var id="x19"> 3 5 6 8 </var>
    <var id="x20"> 4 6 8 </var>
    <var id="x21"> 10 13 </var>
    <var id="x22"> 0 1 4 13 </var>
    <var id="x23"> 4 6 10 </var>
    <var id="x24"> 0 4 8 10 </var>
    <var id="x25"> 1 8 13 </var>
    <var id="x26"> 1 4 8 </var>
    <var id="x27"> 1 4 6 8 10 13 </var>
    <var id="x28"> 3 9 12 </var>
    <var id="x29"> 4 9 12 </var>
    <var id="x30"> 3 5 7 9 13 </var>
    <var id="x31"> 4 5 12 </var>
    <var id="x32"> 4 5 13 </var>
    <var id="x33"> 4 7 13 </var>
    <var id="x34"> 3 5 13 </var>
    <var id="x35"> 3 5 7 8 </var>
    <var id="x36"> 1 5 12 </var>
    <var id="x37"> 3 7 12 </var>
    <var id="x38"> 1 8 10 12 </var>
    <var id="x39"> 1 3 5 7 8 </var>
    <var id="x40"> 1 5 8 12 </var>
    <var id="x41"> 1 5 6 </var>
    <var id="x42"> 3 5 6 8 10 </var>
    <var id="x43"> 4 7 14 </var>
    <var id="x44"> 1 9 </var>
    <var id="x45"> 1 4 9 </var>
    <var id="x46"> 1 5 7 9 13 </var>
    <var id="x47"> 1 4 5 13 14 </var>
    <var id="x48"> 1 5 7 14 </var>
    <var id="x49"> 1 4 7 13 </var>
    <var id="x50"> 4 7 8 10 </var>
    <var id="x51"> 7 8 11 </var>
    <var id="x52"> 2 10 </var>
    <var id="x53"> 4 12 </var>
    <var id="x54"> 2 4 7 11 12 </var>
    <var id="x55"> 4 11 </var>
    <var id="x56"> 4 7 8 10 </var>
    <var id="x57"> 4 6 8 10 13 </var>
    <var id="x58"> 3 4 11 </var>
    <var id="x59"> 3 6 </var>
    <var id="x60"> 3 4 8 10 </var>
    <var id="x61"> 3 8 13 </var>
    <var id="x62"> 4 8 11 </var>
    <var id="x63"> 3 6 8 </var>
    <var id="x64"> 8..10 13 </var>
    <var id="x65"> 5 8 9 13 </var>
    <var id="x66"> 5 9 10 13 </var>
    <var id="x67"> 0 1 5 9 13 </var>
    <var id="x68"> 0 1 9 </var>
    <var id="x69"> 9 10 </var>
    <var id="x70"> 5 8 10 13 </var>
    <var id="x71"> 0 1 9 13 </var>
    <var id="x72"> 3 7 11 </var>
    <var id="x73"> 7 9 11 </var>
    <var id="x74"> 0 3 7 </var>
    <var id="x75"> 1 3 7 9 13 </var>
    <var id="x76"> 0 1 11 13 </var>
    <var id="x77"> 3 11 13 </var>
    <var id="x78"> 6..8 </var>
    <var id="x79"> 3 7 8 11 </var>
    <var id="x80"> 3 </var>
    <var id="x81"> 3 7 8 12 </var>
    <var id="x82"> 1 8 11 12 </var>
    <var id="x83"> 1 6 11 </var>
    <var id="x84"> 3 6 8 11 </var>
    <var id="x85"> 9 13 </var>
    <var id="x86"> 5 9 13 </var>
    <var id="x87"> 1 2 9 12 </var>
    <var id="x88"> 9 12 </var>
    <var id="x89"> 1 5 9 13 </var>
    <var id="x90"> 1 5 13 14 </var>
    <var id="x91"> 1 5 14 </var>
    <var id="x92"> 4 6 9 13 </var>
    <var id="x93"> 5 9 13 </var>
    <var id="x94"> 5 9 13 14 </var>
    <var id="x95"> 1 4 5 9 13 </var>
    <var id="x96"> 4 </var>
    <var id="x97"> 1 4 9 </var>
    <var id="x98"> 1 5 6 14 </var>
    <var id="x99"> 3 8 9 11 </var>
    <var id="x100"> 2 3 9 </var>
    <var id="x101"> 4 9..11 </var>
    <var id="x102"> 2 4 8 11 </var>
    <var id="x103"> 4 11 </var>
    <var id="x104"> 4 8 10 </var>
    <var id="x105"> 3 8 10 11 </var>
  </variables>
  <constraints>
    <group>
      <allDifferent> %... </allDifferent>
      <args> x0 x1 x2 x3 x4 x5 x6 </args>
      <args> x7 x8 x9 x10 x11 x12 x13 </args>
      <args> x14 x15 x16 x17 x18 x19 x20 </args>
      <args> x21 x22 x23 x24 x25 x26 x27 </args>
      <args> x28 x29 x30 x31 x32 x33 x34 </args>
      <args> x35 x36 x37 x38 x39 x40 x41 x42 </args>
      <args> x43 x44 x45 x46 x47 x48 x49 </args>
      <args> x50 x51 x52 x53 x54 x55 x56 </args>
      <args> x57 x58 x59 x60 x61 x62 x63 </args>
      <args> x64 x65 x66 x67 x68 x69 x70 </args>
      <args> x71 x72 x73 x74 x75 x76 x77 </args>
      <args> x78 x79 x80 x81 x82 x83 x84 </args>
      <args> x85 x86 x87 x88 x89 x90 x91 </args>
      <args> x92 x93 x94 x95 x96 x97 x98 </args>
      <args> x99 x100 x101 x102 x103 x104 x105 </args>
      <args> x0 x50 x57 x64 x78 x85 x92 </args>
      <args> x35 x51 x65 x79 x86 x93 x99 </args>
      <args> x1 x14 x21 x52 x66 x80 x94 </args>
      <args> x7 x22 x36 x53 x67 x71 x95 </args>
      <args> x2 x15 x37 x43 x54 x58 x72 </args>
      <args> x8 x28 x44 x59 x68 x87 x100 </args>
      <args> x9 x16 x23 x69 x73 x88 x101 </args>
      <args> x3 x17 x24 x60 x74 x81 x96 </args>
      <args> x4 x10 x18 x29 x38 x45 x97 </args>
      <args> x25 x30 x39 x46 x61 x75 x89 </args>
      <args> x5 x26 x31 x40 x62 x82 x102 </args>
      <args> x32 x41 x47 x55 x76 x83 x90 x103 </args>
      <args> x6 x11 x19 x48 x63 x91 x98 </args>
      <args> x12 x20 x27 x33 x49 x56 x104 </args>
      <args> x13 x34 x42 x70 x77 x84 x105 </args>
    </group>
  </constraints>
</instance>

